Fe72 H78
1.0
   4.0048389999999996    0.0000000000000000    0.0000000000000000
   0.0000000000000000    6.9365850000000000    0.0000000000000000
   0.0000000000000000    0.0000000000000000   44.1441560000000024
Fe H
72 78
direct
   0.5000201006831985    0.4998655678550757    0.1744060980574643 Fe
   0.0000199758342345    0.9998637658155995    0.1744060980574643 Fe
   0.0000174788549552    0.3332057489384186    0.1920229259791489 Fe
   0.5000176037039192    0.8332053885305234    0.1920229259791489 Fe
   0.0000149818756759    0.6664316807189706    0.2072120259814232 Fe
   0.5000151067246399    0.1664320411268658    0.2072120259814232 Fe
   0.5000176037039192    0.4998453850129423    0.2278419367673492 Fe
   0.0000174788549552    0.9998464662366281    0.2278419367673492 Fe
   0.0000049939585586    0.3331668248857327    0.2465100929781056 Fe
   0.5000051188075226    0.8331693477409994    0.2465109991003113 Fe
   0.5000051188075226    0.1665632296007329    0.2649279329295592 Fe
   0.0000024969792793    0.6665643108244187    0.2649279329295592 Fe
   0.4999951308904054    0.4998439433813613    0.2835360585441933 Fe
   0.9999952557393693    0.9998435829734661    0.2835360585441933 Fe
   0.9999927587600901    0.3332735056227236    0.3021820147609119 Fe
   0.4999926339111261    0.8332745868464093    0.3021820147609119 Fe
   0.9999877648015314    0.6666479254561142    0.3204560078122232 Fe
   0.4999876399525674    0.1666482858640095    0.3204560078122232 Fe
   0.4999851429732881    0.4999924314342000    0.3391479497308771 Fe
   0.9999852678222522    0.9999935126578857    0.3391479497308771 Fe
   0.4999826459940088    0.8333394602675523    0.3577180182128751 Fe
   0.9999827708429727    0.3333383790438667    0.3577180182128751 Fe
   0.9999827708429727    0.6666998241930288    0.3760900989929449 Fe
   0.4999826459940088    0.1666973013377620    0.3760900989929449 Fe
   0.9999777768844140    0.0001081223685719    0.3950198979905743 Fe
   0.4999776520354502    0.5001077619606766    0.3950198979905743 Fe
   0.4999801490147294    0.8334519075308672    0.4134569930388974 Fe
   0.9999802738636935    0.3334522679387624    0.4134569930388974 Fe
   0.9999802738636935    0.6668540787721912    0.4315110249247942 Fe
   0.4999801490147294    0.1668544391800865    0.4315110249247942 Fe
   0.9999802738636935    0.0000605485264002    0.4512429686049497 Fe
   0.4999801490147294    0.5000601881185051    0.4512429686049497 Fe
   0.4999801490147294    0.8333956838992098    0.4711090183715371 Fe
   0.9999777768844140    0.3333960443071050    0.4711090183715371 Fe
   0.9999777768844140    0.6668295710353149    0.4845839616913278 Fe
   0.4999776520354502    0.1668284898116292    0.4845839616913278 Fe
   0.9999977527186487    0.0003647327899824    0.5094490876663267 Fe
   0.5000001248489639    0.5003643723820871    0.5094490876663267 Fe
   0.5000225976624778    0.1669164293380676    0.5343169320079424 Fe
   0.0000224728135139    0.6669160689301725    0.5343169320079424 Fe
   0.0000249697927932    0.3334234353071432    0.5479971120073063 Fe
   0.5000250946417572    0.8334230748992481    0.5479971120073063 Fe
   0.0000249697927932    0.0000562236316574    0.5676719699885077 Fe
   0.5000250946417572    0.5000558632237622    0.5676719699885077 Fe
   0.0000299637513518    0.6668382208248007    0.5874039136686632 Fe
   0.5000300886003158    0.1668385812326959    0.5874039136686632 Fe
   0.5000325855795951    0.8334144251097622    0.6053440006872031 Fe
   0.0000324607306311    0.3334147855176575    0.6053440006872031 Fe
   0.0000349577099104    0.0000187412105525    0.6237910630797879 Fe
   0.5000350825588744    0.5000183808026573    0.6237910630797879 Fe
   0.5000375795381538    0.1666800017587906    0.6427029661638565 Fe
   0.0000374546891898    0.6666796413508953    0.6427029661638565 Fe
   0.0000474426063070    0.3333398206754477    0.6610999653045809 Fe
   0.5000475674552710    0.8333394602675523    0.6610999653045809 Fe
   0.0000449456270277    0.9999372890262282    0.6795719460578202 Fe
   0.5000450704759918    0.4999376494341236    0.6795719460578202 Fe
   0.0000449456270277    0.6666421589297904    0.6979979411091244 Fe
   0.5000450704759918    0.1666425193376856    0.6979979411091244 Fe
   0.5000500644345502    0.8331938554778756    0.7165530585747296 Fe
   0.0000499395855863    0.3331942158857709    0.7165530585747296 Fe
   0.5000500644345502    0.4998670094866566    0.7351161046096338 Fe
   0.0000499395855863    0.9998666490787614    0.7351161046096338 Fe
   0.5000500644345502    0.1665300720743709    0.7535620343494618 Fe
   0.0000499395855863    0.6665297116664758    0.7535620343494618 Fe
   0.5000475674552710    0.8331722310041613    0.7721860171026945 Fe
   0.0000474426063070    0.3331725914120565    0.7721860171026945 Fe
   0.0000449456270277    0.9997484352891229    0.7927160279154505 Fe
   0.5000450704759918    0.4997487956970180    0.7927160279154505 Fe
   0.0000499395855863    0.6664879043506279    0.8080038952381375 Fe
   0.5000500644345502    0.1664882647585231    0.8080038952381375 Fe
   0.5000500644345502    0.8331405151093801    0.8255418905279330 Fe
   0.0000499395855863    0.3331394338856944    0.8255418905279330 Fe
   0.8789367063195300    0.4555555795827486    0.4421876363430756 H
   0.1180023716309195    0.4555555795827486    0.4421876363430756 H
   0.2428513355967618    0.3301336320393969    0.4421876363430756 H
   0.1242448198292116    0.2119198424008356    0.4421876363430756 H
   0.7540877423536877    0.3301336320393969    0.4421876363430756 H
   0.8739427477608963    0.2119198424008356    0.4421876363430756 H
   0.3799704141248458    0.9564346144392378    0.4421876363430756 H
   0.6167538819912611    0.9562763953732276    0.4421876363430756 H
   0.2538863609748107    0.8306962287638658    0.4421876363430756 H
   0.3739427477608963    0.7121660009932842    0.4421876363430756 H
   0.7440998252364203    0.8308544478298761    0.4421876363430756 H
   0.6242448198292117    0.7121660009932842    0.4421876363430756 H
   0.8789367063195300    0.5319620533735260    0.4580447749414441 H
   0.1180023716309195    0.5319620533735260    0.4580447749414441 H
   0.3564638928056784    0.2926512109344872    0.4580447749414441 H
   0.2378573770381281    0.1729957897149678    0.4580447749414441 H
   0.6417236747844295    0.2926512109344872    0.4580447749414441 H
   0.7590817009123214    0.1729957897149678    0.4580447749414441 H
   0.3799704141248458    0.0318800005093765    0.4580447749414441 H
   0.6167538819912611    0.0319620533735260    0.4580447749414441 H
   0.1406899669791137    0.7932138076589561    0.4580447749414441 H
   0.2590817009123213    0.6732419483074165    0.4580447749414441 H
   0.8564638928056785    0.7933720267249662    0.4580447749414441 H
   0.7366088873984697    0.6732419483074165    0.4580447749414441 H
   0.8739427477608963    0.8841948163253244    0.4802447689791600 H
   0.7615786801916382    0.9959212638495745    0.4802447689791600 H
   0.1232111120238958    0.8840365972593143    0.4802447689791600 H
   0.2351456159244687    0.9963197548457443    0.4802447689791600 H
   0.1105114337929690    0.1196554212195194    0.4802447689791600 H
   0.8864276441574805    0.1196554212195194    0.4802447689791600 H
   0.6242448198292117    0.3834740005348454    0.4802447689791600 H
   0.7366088873984697    0.4959212638495744    0.4802447689791600 H
   0.2615786801916382    0.4959212638495744    0.4802447689791600 H
   0.3739427477608963    0.3834740005348454    0.4802447689791600 H
   0.3864276441574805    0.6199015798119680    0.4802447689791600 H
   0.6117599234326274    0.6199015798119680    0.4802447689791600 H
   0.3218183053051570    0.7808808296878074    0.5093256285158108 H
   0.6754168145086482    0.7798242218613338    0.5093539448347364 H
   0.4911638645149032    0.9481540268013728    0.5093539448347364 H
   0.9993958558633693    0.4476266058874793    0.5093539448347364 H
   0.1710631813164025    0.2757120398582300    0.5093539448347364 H
   0.8277352306380690    0.2758321758233098    0.5093916999266374 H
   0.6123640675692581    0.6199015798119680    0.5384631206903129 H
   0.3870317882941112    0.6199015798119680    0.5384631206903129 H
   0.6248489639658423    0.3834740005348454    0.5384631206903129 H
   0.7372130315351004    0.4944796322686164    0.5384631206903129 H
   0.2621828243282689    0.4944796322686164    0.5384631206903129 H
   0.3745468918975270    0.3834740005348454    0.5384631206903129 H
   0.1244462012080885    0.8843530353913346    0.5384631206903129 H
   0.2351456159244687    0.9963197548457443    0.5384631206903129 H
   0.1105114337929690    0.1196554212195194    0.5384631206903129 H
   0.8882802779337697    0.1196554212195194    0.5384631206903129 H
   0.8745468918975270    0.8841948163253244    0.5384631206903129 H
   0.7628137693758310    0.9963197548457443    0.5384631206903129 H
   0.7609343346886105    0.1729957897149678    0.5606631147280288 H
   0.2372130315351004    0.1729957897149678    0.5606631147280288 H
   0.8807893400958191    0.5319620533735260    0.5606631147280288 H
   0.6410793292814019    0.2926512109344872    0.5606631147280288 H
   0.3570680369423090    0.2926512109344872    0.5606631147280288 H
   0.1173580261278918    0.5319620533735260    0.5606631147280288 H
   0.1398308396417434    0.7933720267249662    0.5606631147280288 H
   0.3795408504561607    0.0319620533735260    0.5606631147280288 H
   0.6196536240283318    0.0318800005093765    0.5606631147280288 H
   0.8589340711740640    0.7932138076589561    0.5606631147280288 H
   0.7397100108144172    0.6732419483074165    0.5606631147280288 H
   0.2596858450489520    0.6732419483074165    0.5606631147280288 H
   0.8745468918975270    0.2104782108198775    0.5765202533263972 H
   0.1248489639658423    0.2104782108198775    0.5765202533263972 H
   0.7546918864903184    0.3301336320393969    0.5765202533263972 H
   0.8807893400958191    0.4569972111637066    0.5765202533263972 H
   0.1173580261278918    0.4569972111637066    0.5765202533263972 H
   0.2447039693730510    0.3301336320393969    0.5765202533263972 H
   0.3795408504561607    0.9569972111637066    0.5765202533263972 H
   0.2546918864903184    0.8315752636203551    0.5765202533263972 H
   0.6196536240283318    0.9573957021598765    0.5765202533263972 H
   0.7465700036048057    0.8311767726241852    0.5765202533263972 H
   0.6260974536055008    0.7107243694123261    0.5765202533263972 H
   0.3720499126182101    0.7107243694123261    0.5765202533263972 H
