Fe76 H106
1.0
   5.6636980000000001    0.0000000000000000    0.0000000000000000
   0.0000000000000000    6.3322070000000004    0.0000000000000000
   0.0000000000000000    0.0000000000000000   39.3288269999999969
Fe H
76 106
direct
   0.9999985874953078    0.4161124233620284    0.1992040088050427 Fe
   0.4999984109322214    0.4161124233620284    0.1992040088050427 Fe
   0.2499992054661107    0.1083303183234534    0.2123150024281172 Fe
   0.7499993820291972    0.1083303183234534    0.2123150024281172 Fe
   0.9999985874953078    0.8019194571497740    0.2273660488272381 Fe
   0.4999984109322214    0.8019194571497740    0.2273660488272381 Fe
   0.2499974398352454    0.5030852592153098    0.2458751185231129 Fe
   0.7499976163983321    0.5030852592153098    0.2458751185231129 Fe
   0.9999985874953078    0.1998323807165495    0.2612150115740802 Fe
   0.4999984109322214    0.1998323807165495    0.2612150115740802 Fe
   0.2499974398352454    0.8993815268515384    0.2769670704900505 Fe
   0.7499976163983321    0.8993815268515384    0.2769670704900505 Fe
   0.9999968218644427    0.6012642985297226    0.2940700468895245 Fe
   0.4999966453013561    0.6012642985297226    0.2940700468895245 Fe
   0.2499974398352454    0.3001465365866908    0.3100669643668753 Fe
   0.7499976163983321    0.3001465365866908    0.3100669643668753 Fe
   0.4999966453013561    0.0010691375060860    0.3260610849136182 Fe
   0.9999968218644427    0.0010691375060860    0.3260610849136182 Fe
   0.2499956742043802    0.6996281075460734    0.3417709356040545 Fe
   0.7499958507674668    0.6996281075460734    0.3417709356040545 Fe
   0.9999950562335774    0.3991167692401716    0.3585070055610863 Fe
   0.4999948796704909    0.3991167692401716    0.3585070055610863 Fe
   0.2499956742043802    0.1024050540356624    0.3750460190434869 Fe
   0.7499958507674668    0.1024050540356624    0.3750460190434869 Fe
   0.9999968218644427    0.7989126066156712    0.3895089472157408 Fe
   0.4999966453013561    0.7989126066156712    0.3895089472157408 Fe
   0.2499956742043802    0.4962203541356118    0.4065600532657636 Fe
   0.7499958507674668    0.4962203541356118    0.4065600532657636 Fe
   0.4999948796704909    0.2013484398093745    0.4259689718180509 Fe
   0.9999932906027122    0.2013484398093745    0.4259689718180509 Fe
   0.2499939085735151    0.8942616689568107    0.4363870297987784 Fe
   0.7499940851366016    0.8942616689568107    0.4363870297987784 Fe
   0.4999966453013561    0.5885846751377520    0.4542861143557625 Fe
   0.9999968218644427    0.5885846751377520    0.4542861143557625 Fe
   0.4999913484087605    0.9469715693122475    0.4836388840175680 Fe
   0.9999915249718470    0.9469715693122475    0.4836388840175680 Fe
   0.2499903773117846    0.2856760683913207    0.4837278772641758 Fe
   0.7499905538748712    0.2856760683913207    0.4837278772641758 Fe
   0.4999842858852997    0.5900296689606008    0.5129141024216156 Fe
   0.9999844624483862    0.5900296689606008    0.5129141024216156 Fe
   0.2499868460500542    0.8957303512029848    0.5309721034903990 Fe
   0.7499852569822756    0.8957303512029848    0.5309721034903990 Fe
   0.4999895827778952    0.2027586906113461    0.5414130454488256 Fe
   0.9999897593409818    0.2027586906113461    0.5414130454488256 Fe
   0.2499886116809194    0.4978390630628468    0.5607700936516616 Fe
   0.7499887882440059    0.4978390630628468    0.5607700936516616 Fe
   0.9999879937101167    0.8000796562715021    0.5778730700511359 Fe
   0.4999878171470301    0.8000796562715021    0.5778730700511359 Fe
   0.2499886116809194    0.1040285006475625    0.5921910663646287 Fe
   0.7499887882440059    0.1040285006475625    0.5921910663646287 Fe
   0.4999878171470301    0.4014919284855975    0.6088330577466753 Fe
   0.9999879937101167    0.4014919284855975    0.6088330577466753 Fe
   0.2499886116809194    0.7014173731212513    0.6257209247557778 Fe
   0.7499887882440059    0.7014173731212513    0.6257209247557778 Fe
   0.4999878171470301    0.0031142380531780    0.6410379338290461 Fe
   0.9999879937101167    0.0031142380531780    0.6410379338290461 Fe
   0.2499868460500542    0.3026227664383049    0.6571790203659011 Fe
   0.7499870226131408    0.3026227664383049    0.6571790203659011 Fe
   0.9999862280792514    0.6025434733892937    0.6737709212634284 Fe
   0.4999878171470301    0.6025434733892937    0.6737709212634284 Fe
   0.2499886116809194    0.9032522152229071    0.6894578879761657 Fe
   0.7499887882440059    0.9032522152229071    0.6894578879761657 Fe
   0.4999878171470301    0.2041910506084213    0.7052119810234869 Fe
   0.9999862280792514    0.2041910506084213    0.7052119810234869 Fe
   0.2499886116809194    0.5019355810699175    0.7225949047501468 Fe
   0.7499887882440059    0.5019355810699175    0.7225949047501468 Fe
   0.9999862280792514    0.8026901205219601    0.7383261138197690 Fe
   0.4999860515161649    0.8026901205219601    0.7383261138197690 Fe
   0.2499850804191890    0.1060657050535461    0.7535398907269724 Fe
   0.7499852569822756    0.1060657050535461    0.7535398907269724 Fe
   0.4999878171470301    0.4049172744984489    0.7721270202134429 Fe
   0.9999862280792514    0.4049172744984489    0.7721270202134429 Fe
   0.2499868460500542    0.7114644230676602    0.7872429045493780 Fe
   0.7499852569822756    0.7114644230676602    0.7872429045493780 Fe
   0.4999878171470301    0.0193202780641884    0.8002819407759098 Fe
   0.9999862280792514    0.0193202780641884    0.8002819407759098 Fe
   0.7486274868469329    0.2432011461406741    0.4083518687196036 H
   0.2486274868469329    0.2432011461406741    0.4083518687196036 H
   0.4996735348530236    0.5985274960215292    0.4139457299349406 H
  -0.0003264651469764    0.5985274960215292    0.4139457299349406 H
   0.7486274868469329    0.1072132512408391    0.4152170620293353 H
   0.2487363085625917    0.1072713405189270    0.4152170620293353 H
   0.4996735348530236    0.9532384996258019    0.4210651896635513 H
  -0.0004352868626351    0.9529172056440984    0.4210651896635513 H
   0.4996735348530236    0.4469215867390310    0.4215737225013093 H
  -0.0003264651469764    0.4469215867390310    0.4215737225013093 H
   0.3831418977494916    0.6932811893230906    0.4218279889201882 H
   0.6162051719565557    0.6932811893230906    0.4218279889201882 H
   0.1162051719565556    0.6932811893230906    0.4218279889201882 H
   0.8828154326025152    0.6932811893230906    0.4218279889201882 H
   0.7499940851366016    0.2013484398093745    0.4259689718180509 H
   0.2499940851366016    0.2013484398093745    0.4259689718180509 H
   0.4996735348530236    0.7880348826246519    0.4297102479054358 H
  -0.0003264651469764    0.7880348826246519    0.4297102479054358 H
   0.4999939968550584    0.8942616689568107    0.4363870297987784 H
   0.9999939968550583    0.8942616689568107    0.4363870297987784 H
   0.7486274868469329    0.6443251144506172    0.4386095725661994 H
   0.2486274868469329    0.6443251144506172    0.4386095725661994 H
   0.7486274868469329    0.3253210136686940    0.4403894374983521 H
   0.2486274868469329    0.3253210136686940    0.4403894374983521 H
   0.6797678831039368    0.3821732296496308    0.4444577002004154 H
   0.8174870905899291    0.3821732296496308    0.4444577002004154 H
   0.1797678831039367    0.3821732296496308    0.4444577002004154 H
   0.3178135557369055    0.3821732296496308    0.4444577002004154 H
   0.4996735348530236    0.9832438358379627    0.4444577002004154 H
  -0.0004352868626351    0.9829225418562594    0.4444577002004154 H
   0.7486274868469329    0.1498524132265417    0.4470003643892049 H
   0.2487363085625917    0.1499105025046296    0.4470003643892049 H
   0.7486274868469329    0.4437631302956457    0.4487802293213576 H
   0.2486274868469329    0.4437631302956457    0.4487802293213576 H
   0.4996735348530236    0.8306740446103545    0.4487802293213576 H
  -0.0003264651469764    0.8306740446103545    0.4487802293213576 H
   0.7499967335828993    0.5885846751377520    0.4542861143557625 H
   0.2499967335828994    0.5885846751377520    0.4542861143557625 H
   0.8475028152984145    0.0993171101323756    0.4576795539821211 H
   0.6515177892606562    0.0993171101323756    0.4576795539821211 H
   0.3460636495801859    0.0993171101323756    0.4576795539821211 H
   0.1515177892606562    0.0993171101323756    0.4576795539821211 H
   0.4996735348530236    0.3300586983337720    0.4625106159408213 H
  -0.0003264651469764    0.3300586983337720    0.4625106159408213 H
   0.4996735348530236    0.1893331187688589    0.4678502107372793 H
  -0.0004352868626351    0.1893912080469468    0.4678502107372793 H
   0.7486274868469329    0.0424648941514388    0.4701386085071899 H
   0.2487363085625917    0.0424068048733509    0.4701386085071899 H
   0.7486274868469329    0.5732598444744462    0.4833604622888957 H
   0.2486274868469329    0.5732598444744462    0.4833604622888957 H
   0.4996735348530236    0.4090201094184065    0.4836147287077746 H
  -0.0003264651469764    0.4090201094184065    0.4836147287077746 H
   0.7486274868469329    0.7306562572364843    0.4836147287077746 H
   0.2486274868469329    0.7306562572364843    0.4836147287077746 H
   0.7499914366903038    0.9469715693122475    0.4836388840175680 H
   0.2499914366903037    0.9469715693122475    0.4836388840175680 H
   0.4999904655933279    0.2856760683913207    0.4837278772641758 H
   0.9999904655933278    0.2856760683913207    0.4837278772641758 H
   0.7486274868469329    0.0416752800405925    0.4968365824894803 H
   0.2487363085625917    0.0418803954661200    0.4968365824894803 H
   0.4996735348530236    0.1893331187688589    0.4991249802593909 H
  -0.0004352868626351    0.1893912080469468    0.4991249802593909 H
   0.4996735348530236    0.3316379265554648    0.5044645750558490 H
  -0.0003264651469764    0.3316379265554648    0.5044645750558490 H
   0.8492684461636195    0.1001067242432220    0.5092956370145492 H
   0.6497521583954512    0.1001067242432220    0.5092956370145492 H
   0.3478292804453910    0.1001067242432220    0.5092956370145492 H
   0.1497521583954512    0.1001067242432220    0.5092956370145492 H
   0.7499843741668429    0.5900296689606008    0.5129141024216156 H
   0.2499843741668430    0.5900296689606008    0.5129141024216156 H
   0.7486274868469329    0.4453423585173383    0.5181949616753126 H
   0.2486274868469329    0.4453423585173383    0.5181949616753126 H
   0.4996735348530236    0.8322532728320472    0.5184492280941916 H
  -0.0003264651469764    0.8322532728320472    0.5184492280941916 H
   0.7486274868469329    0.1506420273373880    0.5202290930263443 H
   0.2487363085625917    0.1504369119118605    0.5202290930263443 H
   0.4996735348530236    0.9848230640596556    0.5227717572151338 H
  -0.0004352868626351    0.9845017700779523    0.5227717572151338 H
   0.6797678831039368    0.3837524578713235    0.5227717572151338 H
   0.8174870905899291    0.3837524578713235    0.5227717572151338 H
   0.1797678831039367    0.3837524578713235    0.5227717572151338 H
   0.3178135557369055    0.3837524578713235    0.5227717572151338 H
   0.7486274868469329    0.3253210136686940    0.5268400199171971 H
   0.2486274868469329    0.3253210136686940    0.5268400199171971 H
   0.7486274868469329    0.6459043426723099    0.5283656184304709 H
   0.2486274868469329    0.6459043426723099    0.5283656184304709 H
   0.4999860515161649    0.8957303512029848    0.5309721034903990 H
   0.9999860515161648    0.8957303512029848    0.5309721034903990 H
   0.4996735348530236    0.7880348826246519    0.5372649430912343 H
  -0.0003264651469764    0.7880348826246519    0.5372649430912343 H
   0.7499896710594386    0.2027586906113461    0.5414130454488256 H
   0.2499896710594386    0.2027586906113461    0.5414130454488256 H
   0.6144395410913506    0.6948604175447833    0.5451472020764820 H
   0.3831418977494916    0.6948604175447833    0.5451472020764820 H
   0.1153223565239531    0.6948604175447833    0.5451472020764820 H
   0.8828154326025152    0.6948604175447833    0.5451472020764820 H
   0.4996735348530236    0.4485008149607237    0.5454014684953609 H
  -0.0003264651469764    0.4485008149607237    0.5454014684953609 H
   0.4996735348530236    0.9548177278474945    0.5461642677519978 H
  -0.0004352868626351    0.9544964338657911    0.5461642677519978 H
   0.7486274868469329    0.1087924794625318    0.5517581289673348 H
   0.2487363085625917    0.1088505687406197    0.5517581289673348 H
   0.4996735348530236    0.6001067242432219    0.5530294610617296 H
  -0.0003264651469764    0.6001067242432219    0.5530294610617296 H
   0.7486274868469329    0.2447803743623668    0.5586233222770666 H
   0.2486274868469329    0.2447803743623668    0.5586233222770666 H
