Fe84
1.0
   4.0048389999999996    0.0000000000000000    0.0000000000000000
   0.0000000000000000   13.2825489999999995    0.0000000000000000
   0.0000000000000000    0.0000000000000000   32.7843609999999970
Fe
84
direct
   0.5000275916210365    0.6292918625784855    0.2405018661184215 Fe
   0.5000300886003158    0.4397318617081707    0.2304241952435797 Fe
   0.0000274667720725    0.1292937071039602    0.2405021711419051 Fe
   0.0000274667720725    0.9397345343879403    0.2304232801731289 Fe
   0.0000324607306311    0.3170769405781978    0.2536712550230886 Fe
   0.5000300886003158    0.8170758489202639    0.2536694248821870 Fe
   0.0000324607306311    0.5028025870636729    0.2655979782555469 Fe
   0.5000300886003158    0.0028044315891475    0.2655976732320633 Fe
   0.0000274667720725    0.6867025297629243    0.2776024824763246 Fe
   0.5000275916210365    0.1867051271559397    0.2776037025702591 Fe
   0.5000225976624778    0.3658514642031436    0.2942195518161845 Fe
   0.0000224728135139    0.8658503725452096    0.2942177216752829 Fe
   0.0000299637513518    0.0482648322998846    0.3056344456431529 Fe
   0.5000300886003158    0.5482644935094914    0.3056341406196693 Fe
   0.5000300886003158    0.7309982443881818    0.3187556408374103 Fe
   0.0000274667720725    0.2309985831785752    0.3187580810252791 Fe
   0.0000299637513518    0.4118132746959940    0.3330194540012539 Fe
   0.5000275916210365    0.9118114301705192    0.3330188439542866 Fe
   0.5000325855795951    0.0946203925165268    0.3446015006972379 Fe
   0.0000324607306311    0.5946193008585928    0.3446008906502708 Fe
   0.5000300886003158    0.2761420266546730    0.3593954446755879 Fe
   0.0000274667720725    0.7761394292616577    0.3593933095112026 Fe
   0.5000275916210365    0.4561345868176357    0.3717458455267742 Fe
   0.0000249697927932    0.9561350008947831    0.3717458455267742 Fe
   0.5000275916210365    0.6414499204934234    0.3834157389860367 Fe
   0.0000274667720725    0.1414510121513574    0.3834178741504219 Fe
   0.0000249697927932    0.3207494284417848    0.4013023160646627 Fe
   0.5000250946417572    0.8207475839163101    0.4013010959707283 Fe
   0.0000249697927932    0.5028025870636729    0.4095291044409864 Fe
   0.5000250946417572    0.0028036787216068    0.4095300195114372 Fe
   0.0000299637513518    0.6897825108719720    0.4228445995943005 Fe
   0.5000275916210365    0.1897836025299060    0.4228470397821693 Fe
   0.5000275916210365    0.3664289136068687    0.4404822775103044 Fe
   0.0000249697927932    0.8664270690813940    0.4404816674633372 Fe
   0.0000274667720725    0.0504624526512193    0.4446553037895111 Fe
   0.5000275916210365    0.5504621138608260    0.4446540836955767 Fe
   0.0000249697927932    0.2323499804141509    0.4803564724046322 Fe
   0.5000275916210365    0.7323503944912984    0.4803543372402470 Fe
   0.0000274667720725    0.4166391556319499    0.4802079259681163 Fe
   0.5000325855795951    0.9166425811792602    0.4802076209446328 Fe
   0.5000225976624778    0.0958287449193675    0.4801460062009444 Fe
   0.0000249697927932    0.5958261475263521    0.4801444810835264 Fe
   0.0000249697927932    0.0445208220199301    0.5153246695886493 Fe
   0.5000300886003158    0.3601883945619174    0.5198896510442892 Fe
   0.5000250946417572    0.5445167188918333    0.5153228394477477 Fe
   0.0000324607306311    0.8601940787118498    0.5198881259268711 Fe
   0.5000250946417572    0.1846648561206136    0.5381416462562745 Fe
   0.0000299637513518    0.6846645173302203    0.5381395110918892 Fe
   0.0000274667720725    0.4982417155020471    0.5506756712445914 Fe
   0.5000275916210365    0.9982443881818167    0.5506759762680750 Fe
   0.0000274667720725    0.3162683608394745    0.5592633024020204 Fe
   0.5000300886003158    0.8162687749166219    0.5592617772846022 Fe
   0.0000249697927932    0.1369586515359364    0.5766319496054841 Fe
   0.5000275916210365    0.6369590656130838    0.5766307295115498 Fe
   0.0000274667720725    0.9522223482857094    0.5886166272998276 Fe
   0.5000275916210365    0.4522211813410212    0.5886172373467948 Fe
   0.0000299637513518    0.7728652083271066    0.6012882178792505 Fe
   0.5000250946417572    0.2728655471174998    0.6012897429966685 Fe
   0.5000250946417572    0.0901920256420662    0.6152238257747346 Fe
   0.0000274667720725    0.5901924397192136    0.6152232157277673 Fe
   0.0000299637513518    0.4074985908201808    0.6273094662421513 Fe
   0.5000300886003158    0.9074997577648689    0.6273085511717005 Fe
   0.5000201006831985    0.7264577002501553    0.6405209483875559 Fe
   0.0000224728135139    0.2264587919080893    0.6405224735049740 Fe
   0.0000249697927932    0.0448332620493250    0.6543446126645568 Fe
   0.5000275916210365    0.5448336761264725    0.6543449176880404 Fe
   0.0000299637513518    0.8630293778701664    0.6666947084922595 Fe
   0.5000275916210365    0.3630312223956411    0.6666959285861939 Fe
   0.0000299637513518    0.6809144841099402    0.6806123200022108 Fe
   0.5000275916210365    0.1809155757678741    0.6806132350726616 Fe
   0.0000224728135139    0.4985752358225820    0.6935663623274525 Fe
   0.5000225976624778    0.9985741441646480    0.6935651422335181 Fe
   0.0000249697927932    0.3163609635469818    0.7053323381840507 Fe
   0.5000250946417572    0.8163591190215072    0.7053302030196654 Fe
   0.5000325855795951    0.6371081333861446    0.7216114415040757 Fe
   0.0000299637513518    0.1371077193089971    0.7216117465275593 Fe
   0.5000275916210365    0.4535409581398872    0.7337062326760007 Fe
   0.0000249697927932    0.9535383607468717    0.7337047075585826 Fe
   0.5000250946417572    0.2676925942452763    0.7455664607890330 Fe
   0.0000249697927932    0.7676915025873423    0.7455646306481313 Fe
   0.5000225976624778    0.0802714900581206    0.7587062624157903 Fe
   0.0000249697927932    0.5802726570028087    0.7587062624157903 Fe
   0.5000201006831985    0.8912957896861514    0.7688702549364925 Fe
   0.0000249697927932    0.3913013985493297    0.7688723901008777 Fe
