Fe42
1.0
   4.0048389999999996    0.0000000000000000    0.0000000000000000
   0.0000000000000000    4.6960899999999999    0.0000000000000000
   0.0000000000000000    0.0000000000000000   50.9732800000000026
Fe
42
direct
   0.9999902617808109    0.9964012614749719    0.2572469340799728 Fe
   0.4999901369318467    0.2876137382375551    0.2666479379000135 Fe
   0.9999877648015314    0.5356690353038379    0.2790540455705420 Fe
   0.4999926339111261    0.8195541397204910    0.2883200767147023 Fe
   0.9999927587600901    0.0886822867534481    0.3023529190195334 Fe
   0.4999901369318467    0.3644308350138094    0.3140260936710371 Fe
   0.9999852678222522    0.6359694980292115    0.3261030092628923 Fe
   0.4999876399525674    0.9089433975924653    0.3376390532451512 Fe
   0.9999877648015314    0.1813018915736283    0.3497679568589661 Fe
   0.4999901369318467    0.4534857722062397    0.3616129862547593 Fe
   0.9999902617808109    0.7268685225368339    0.3733450152707457 Fe
   0.4999851429732881    0.9992461813977160    0.3852820536563470 Fe
   0.9999827708429727    0.2728290982498207    0.3969310980184128 Fe
   0.4999876399525674    0.5451939805242234    0.4091149323724115 Fe
   0.9999877648015314    0.8191921364369082    0.4206560770662590 Fe
   0.4999851429732881    0.0901920533890960    0.4330329537357611 Fe
   0.9999902617808109    0.3643137163044149    0.4441130725744939 Fe
   0.4999926339111261    0.6360248632372889    0.4573099867224554 Fe
   0.9999877648015314    0.9110962524142426    0.4672599055819048 Fe
   0.4999801490147294    0.1795110400354337    0.4822030287240688 Fe
   0.9999827708429727    0.4636452878884348    0.4894699732879658 Fe
   0.9999777768844140    0.0058665826251200    0.5119409620099001 Fe
   0.4999801490147294    0.7096116130653374    0.5119539099700863 Fe
   0.9999727829258556    0.4640775623976542    0.5343580008977252 Fe
   0.4999751550561709    0.1791128364234928    0.5416039540716234 Fe
   0.9999627950087383    0.9115753744072198    0.5565570824557493 Fe
   0.4999726580768915    0.6363400190371139    0.5664579560114632 Fe
   0.9999727829258556    0.3642839042692964    0.5797119588929729 Fe
   0.4999726580768915    0.0898364383987530    0.5908819287281493 Fe
   0.9999677889672969    0.8187300498925703    0.6032719495390526 Fe
   0.4999701610976122    0.5445359863205348    0.6148380092471977 Fe
   0.9999752799051348    0.2722435047028486    0.6268929525429794 Fe
   0.4999676641183329    0.9989012135627725    0.6385500403348578 Fe
   0.9999677889672969    0.7268280633463159    0.6505129746408314 Fe
   0.4999676641183329    0.4533665240657654    0.6625500654460533 Fe
   0.9999777768844140    0.1808951702373677    0.6742630648841903 Fe
   0.4999801490147294    0.9093522483598059    0.6862630774397880 Fe
   0.9999777768844140    0.6334588987860114    0.6979289933863388 Fe
   0.4999701610976122    0.3647630262622735    0.7119930285043458 Fe
   0.9999727829258556    0.0806926613416694    0.7212529780308428 Fe
   0.4999676641183329    0.8327736478645000    0.7336229883578219 Fe
   0.9999702859465761    0.5415760771194760    0.7431069768317832 Fe
