Fe48
1.0
   4.0048389999999996    0.0000000000000000    0.0000000000000000
   0.0000000000000000    4.9049060000000004    0.0000000000000000
   0.0000000000000000    0.0000000000000000   41.6195090000000008
Fe
48
direct
   0.9999677889672969    0.0277314182983323    0.1798329720804731 Fe
   0.9999677889672969    0.5277328454408708    0.1798329720804731 Fe
   0.5000650463102262    0.3306750424982660    0.2056948821765293 Fe
   0.5000650463102262    0.8306744308657494    0.2056948821765293 Fe
   0.0000049939585586    0.1687106745776575    0.2345599511998087 Fe
   0.0000049939585586    0.6687100629451410    0.2345599511998087 Fe
   0.5000176037039192    0.5005947106835482    0.2624850764097193 Fe
   0.5000176037039192    0.0005953223160648    0.2624850764097193 Fe
   0.9999777768844140    0.3337535928313407    0.2906120300458133 Fe
   0.9999777768844140    0.8337529811988241    0.2906120300458133 Fe
   0.5000176037039192    0.1656973650463434    0.3179799646362959 Fe
   0.5000176037039192    0.6656967534138268    0.3179799646362959 Fe
   0.9999827708429727    0.4980319704393927    0.3459810157779612 Fe
   0.9999827708429727    0.9980313588068761    0.3459810157779612 Fe
   0.4999327064084224    0.3351338435435867    0.3734909510825801 Fe
   0.4999327064084224    0.8351311931360151    0.3734909510825801 Fe
   0.9999802738636935    0.1696913253791204    0.4012469248495940 Fe
   0.9999802738636935    0.6696907137466038    0.4012469248495940 Fe
   0.4999776520354502    0.0012966609349904    0.4291780568579028 Fe
   0.4999776520354502    0.5012940105274188    0.4291780568579028 Fe
   0.0000124848963966    0.3320124789343567    0.4569820850121033 Fe
   0.0000124848963966    0.8320118673018402    0.4569820850121033 Fe
   0.4999426943255397    0.1733509266028747    0.4847469488407468 Fe
   0.4999426943255397    0.6733503149703581    0.4847469488407468 Fe
   0.0000049939585586    0.4783577911584849    0.5140519557787191 Fe
   0.0000049939585586    0.9783571795259685    0.5140519557787191 Fe
   0.4999776520354502    0.1565697691250352    0.5433670541380005 Fe
   0.4999776520354502    0.6565691574925188    0.5433670541380005 Fe
   0.0000349577099104    0.3238594174893464    0.5706790053674108 Fe
   0.0000349577099104    0.8238608446318848    0.5706790053674108 Fe
   0.4999701610976122    0.9948529084961057    0.5988150893370703 Fe
   0.4999701610976122    0.4948514813535672    0.5988150893370703 Fe
   0.9999777768844140    0.1643395408597025    0.6264960982600731 Fe
   0.9999777768844140    0.6643389292271860    0.6264960982600731 Fe
   0.4999751550561709    0.3287422837461105    0.6540319829337727 Fe
   0.4999751550561709    0.8287437108886491    0.6540319829337727 Fe
   0.0000124848963966    0.4958504811305252    0.6820070847063573 Fe
   0.0000124848963966    0.9958498694980087    0.6820070847063573 Fe
   0.4999352033877018    0.1638767389222138    0.7094780959573550 Fe
   0.4999352033877018    0.6638761272896972    0.7094780959573550 Fe
   0.0000124848963966    0.3314130790681819    0.7377160552278500 Fe
   0.0000124848963966    0.8314145062107203    0.7377160552278500 Fe
   0.4999501852633776    0.5007048045365191    0.7656668895349054 Fe
   0.4999501852633776    0.0007033773939806    0.7656668895349054 Fe
   0.9999952557393693    0.1637360634434177    0.7945389264443269 Fe
   0.9999952557393693    0.6637374905859561    0.7945389264443269 Fe
   0.4999551792219363    0.3603412583238088    0.8203580681357869 Fe
   0.4999551792219363    0.8603426854663473    0.8203580681357869 Fe
