Fe38
1.0
   2.8318490000000001    0.0000000000000000    0.0000000000000000
   0.0000000000000000    6.3322070000000004    0.0000000000000000
   0.0000000000000000    0.0000000000000000   39.3288269999999969
Fe
38
direct
   0.4999736921001084    0.7114644230676602    0.7872426502829591 Fe
   0.9999721030323299    0.0193218572924101    0.8002814322430720 Fe
   0.9999968218644427    0.4161140025902501    0.1992035002722049 Fe
   0.4999984109322214    0.1083303183234534    0.2123152566945361 Fe
   0.9999968218644427    0.8019210363779958    0.2273663030936570 Fe
   0.4999948796704909    0.5030852592153098    0.2458751185231129 Fe
   0.9999968218644427    0.1998339599447712    0.2612152658404991 Fe
   0.4999948796704909    0.8993815268515384    0.2769670704900505 Fe
   0.9999932906027122    0.6012642985297226    0.2940695383566868 Fe
   0.4999948796704909    0.3001465365866908    0.3100669643668753 Fe
   0.9999932906027122    0.0010691375060860    0.3260610849136182 Fe
   0.4999913484087605    0.6996281075460734    0.3417711898704734 Fe
   0.9999897593409818    0.3991151900119500    0.3585067512946674 Fe
   0.4999913484087605    0.1024050540356624    0.3750455105106491 Fe
   0.9999932906027122    0.7989126066156712    0.3895092014821596 Fe
   0.4999878171470301    0.4962203541356118    0.4065603075321824 Fe
   0.9999897593409818    0.2013484398093745    0.4259687175516320 Fe
   0.4999878171470301    0.8942616689568107    0.4363867755323595 Fe
   0.9999932906027122    0.5885846751377520    0.4542858600893436 Fe
   0.9999826968175209    0.9469715693122475    0.4836393925504058 Fe
   0.4999807546235693    0.2856760683913207    0.4837278772641758 Fe
   0.9999685717705994    0.5900296689606008    0.5129143566880344 Fe
   0.4999701608383780    0.8957303512029848    0.5309715949575613 Fe
   0.9999756342940602    0.2027571113831244    0.5414127911824068 Fe
   0.4999736921001084    0.4978390630628468    0.5607700936516616 Fe
   0.9999756342940602    0.8000796562715021    0.5778733243175547 Fe
   0.4999772233618388    0.1040285006475625    0.5921913206310475 Fe
   0.9999756342940602    0.4014919284855975    0.6088333120130941 Fe
   0.4999772233618388    0.7014173731212513    0.6257206704893589 Fe
   0.9999756342940602    0.0031142380531780    0.6410376795626271 Fe
   0.4999736921001084    0.3026227664383049    0.6571792746323200 Fe
   0.9999721030323299    0.6025434733892937    0.6737709212634284 Fe
   0.4999772233618388    0.9032522152229071    0.6894578879761657 Fe
   0.9999756342940602    0.2041910506084213    0.7052122352899058 Fe
   0.4999736921001084    0.5019355810699175    0.7225949047501468 Fe
   0.9999721030323299    0.8026901205219601    0.7383261138197690 Fe
   0.4999701608383780    0.1060641258253244    0.7535396364605534 Fe
   0.9999721030323299    0.4049188537266706    0.7721272744798618 Fe
