Fe80
1.0
   5.6636980000000001    0.0000000000000000    0.0000000000000000
   0.0000000000000000    8.9550929999999997    0.0000000000000000
   0.0000000000000000    0.0000000000000000   31.9101849999999985
Fe
80
direct
   0.0000247188321129    0.0138714360643714    0.2169439005132687 Fe
   0.5000248953951993    0.0138714360643714    0.2169439005132687 Fe
   0.2500345180834148    0.8059201618564988    0.2411869439177491 Fe
   0.7500346946465012    0.8059201618564988    0.2411869439177491 Fe
   0.0000353126173041    0.3059275877983623    0.2427118488971468 Fe
   0.5000354891803906    0.3059275877983623    0.2427118488971468 Fe
   0.0000388438790345    0.5980049565091061    0.2675901126865921 Fe
   0.5000390204421210    0.5980049565091061    0.2675901126865921 Fe
   0.2500309868216843    0.1033780442034494    0.2713469069514953 Fe
   0.7500311633847709    0.1033780442034494    0.2713469069514953 Fe
   0.2500451118686060    0.3998774775426676    0.2980198955286533 Fe
   0.7500452884316925    0.3998774775426676    0.2980198955286533 Fe
   0.0000370782481693    0.8987723522245946    0.2982539900661811 Fe
   0.5000372548112558    0.8987723522245946    0.2982539900661811 Fe
   0.2500415806068756    0.6965511134278561    0.3255778680067195 Fe
   0.7500417571699621    0.6965511134278561    0.3255778680067195 Fe
   0.0000423751407649    0.2000135565314621    0.3278780740381166 Fe
   0.5000425517038515    0.2000135565314621    0.3278780740381166 Fe
   0.0000512032950909    0.4983655669460942    0.3547491185024468 Fe
   0.5000513798581775    0.4983655669460942    0.3547491185024468 Fe
   0.2500521743920668    0.9977674157041140    0.3552831172868474 Fe
   0.7500523509551534    0.9977674157041140    0.3552831172868474 Fe
   0.0000617970802822    0.7982440830039398    0.3827060231709719 Fe
   0.5000619736433687    0.7982440830039398    0.3827060231709719 Fe
   0.2500627681772580    0.2995915285301894    0.3835490142097264 Fe
   0.7500629447403445    0.2995915285301894    0.3835490142097264 Fe
   0.2500733619624493    0.5960250775731755    0.4108180507258106 Fe
   0.7500735385255358    0.5960250775731755    0.4108180507258106 Fe
   0.0000706252346082    0.0955255294389461    0.4112940742900739 Fe
   0.5000708017976948    0.0955255294389461    0.4112940742900739 Fe
   0.2500768932241797    0.8988516367166707    0.4404471487708392 Fe
   0.7500770697872663    0.8988516367166707    0.4404471487708392 Fe
   0.0000812190197994    0.3993894870773536    0.4405029303339984 Fe
   0.5000813955828860    0.3993894870773536    0.4405029303339984 Fe
   0.0001324223148904    0.6978654493035417    0.4644300871336220 Fe
   0.5001325988779769    0.6978654493035417    0.4644300871336220 Fe
   0.2501333934118662    0.1979208926138455    0.4652530218800048 Fe
   0.7501335699749527    0.1979208926138455    0.4652530218800048 Fe
   0.2499886116809194    0.4975727220253324    0.4999939674433100 Fe
   0.7499887882440059    0.4975727220253324    0.4999939674433100 Fe
   0.9999897593409818    0.9975719961813910    0.5000121434582721 Fe
   0.4999895827778952    0.9975719961813910    0.5000121434582721 Fe
   0.4998448010469485    0.6979882844321103    0.5347421207366864 Fe
   0.9998449776100350    0.6979882844321103    0.5347421207366864 Fe
   0.2498438299499726    0.1979331761267024    0.5355650554830691 Fe
   0.7498440065130590    0.1979331761267024    0.5355650554830691 Fe
   0.2498967988759288    0.8994457120657485    0.5595028671880155 Fe
   0.7498969754390152    0.8994457120657485    0.5595028671880155 Fe
   0.4999013012346351    0.3989070800269746    0.5595580219920380 Fe
   0.9999014777977216    0.3989070800269746    0.5595580219920380 Fe
   0.2499073926611200    0.5955862211592889    0.5887060823997103 Fe
   0.7499075692242065    0.5955862211592889    0.5887060823997103 Fe
   0.4999101293889611    0.0960849876154273    0.5891808524457003 Fe
   0.9999103059520477    0.0960849876154273    0.5891808524457003 Fe
   0.4999242544358827    0.7996444034696234    0.6164511424800577 Fe
   0.9999244309989692    0.7996444034696234    0.6164511424800577 Fe
   0.2499215177080417    0.2982984096312568    0.6172950736575172 Fe
   0.7499216942711281    0.2982984096312568    0.6172950736575172 Fe
   0.4999295513284783    0.4978239756974048    0.6447170394029367 Fe
   0.9999297278915648    0.4978239756974048    0.6447170394029367 Fe
   0.2499338771240981    0.9984162085195543    0.6452500980486324 Fe
   0.7499340536871846    0.9984162085195543    0.6452500980486324 Fe
   0.2499444709092893    0.7000608480559611    0.6721220826516675 Fe
   0.7499446474723759    0.7000608480559611    0.6721220826516675 Fe
   0.4999454420062652    0.1965976232742642    0.6744210351647915 Fe
   0.9999456185693516    0.1965976232742642    0.6744210351647915 Fe
   0.2499497678018849    0.3988188620710025    0.7017458532440347 Fe
   0.7499481787341064    0.3988188620710025    0.7017458532440347 Fe
   0.4999401451136696    0.8999270024331406    0.7019790076428576 Fe
   0.9999403216767561    0.8999270024331406    0.7019790076428576 Fe
   0.9999579779854081    0.6034219856789874    0.7286529363587205 Fe
   0.4999578014223216    0.6034219856789874    0.7286529363587205 Fe
   0.2499515334327501    0.0980525830385011    0.7324078503462139 Fe
   0.7499517099958366    0.0980525830385011    0.7324078503462139 Fe
   0.2499585959562109    0.8059748793228614    0.7572870542743642 Fe
   0.7499587725192974    0.8059748793228614    0.7572870542743642 Fe
   0.4999578014223216    0.3059610882879720    0.7588119592537618 Fe
   0.9999579779854081    0.3059610882879720    0.7588119592537618 Fe
   0.2499656584796718    0.5139064440760135    0.7830559427969470 Fe
   0.7499658350427583    0.5139064440760135    0.7830559427969470 Fe
