Fe40
1.0
   2.8318490000000001    0.0000000000000000    0.0000000000000000
   0.0000000000000000    8.9550929999999997    0.0000000000000000
   0.0000000000000000    0.0000000000000000   31.9101849999999985
Fe
40
direct
   0.4999348482210739    0.5141610477970469    0.7830079957229956 Fe
   0.0000529689259562    0.0141238064194308    0.2169912208280836 Fe
   0.5000549111199079    0.8062305997268817    0.2413546019867951 Fe
   0.0000600314494170    0.3049895740892920    0.2427717043946940 Fe
   0.5000655049050992    0.1035042293809791    0.2714894946550764 Fe
   0.0000741564963386    0.5980485071455987    0.2677612179308894 Fe
   0.0000741564963386    0.8987433184669328    0.2982737329789846 Fe
   0.5000760986902903    0.3997256086564372    0.2980562475585773 Fe
   0.5000866924754815    0.6964930459125327    0.3256073256861406 Fe
   0.0000812190197994    0.2001296915621089    0.3279379295356639 Fe
   0.0001059378519123    0.4980930962972691    0.3547231079982770 Fe
   0.5000902237372120    0.9975094619341196    0.3552721490019566 Fe
   0.5001114113075944    0.2993961090074665    0.3834593876531897 Fe
   0.0001059378519123    0.7982842835914714    0.3826746852141409 Fe
   0.0001271254222948    0.0955445130497249    0.4111254760823229 Fe
   0.5001431926631682    0.5961769464594059    0.4107287375488421 Fe
   0.0001553755161380    0.3997267253394242    0.4404092298430736 Fe
   0.5001502551866289    0.8991598412210796    0.4403772651271060 Fe
   0.0002789696767024    0.6982417714701568    0.4642141686110563 Fe
   0.5002809118706542    0.1979342928096894    0.4653006555743879 Fe
   0.9999791655557905    0.9973977936354206    0.5001306009350933 Fe
   0.4999842858852997    0.4973985194793622    0.4998751965869204 Fe
   0.9996684145235144    0.6979994512619803    0.5346960539401447 Fe
   0.4996805973764844    0.1983083816103306    0.5357819141443398 Fe
   0.4998006602753183    0.8997829503278190    0.5595968810585084 Fe
   0.9998131962544613    0.3992141678483965    0.5596285323949077 Fe
   0.4998359728926224    0.5956018547211067    0.5888746806074612 Fe
   0.9998167275161917    0.0962402065506188    0.5892717325205102 Fe
   0.4998571604630049    0.2983341434868404    0.6173254714756432 Fe
   0.9998485088717655    0.7994467505809264    0.6165410824161628 Fe
   0.4998642229864658    0.9981437378707291    0.6452764219323706 Fe
   0.9998838214890694    0.4975582051465016    0.6447270675491227 Fe
   0.9998944152742607    0.1965362057099798    0.6743925176240751 Fe
   0.4998960043420394    0.7001758664036208    0.6720612870154152 Fe
   0.4998960043420394    0.3987875949473668    0.7017251701925262 Fe
   0.9998908840125303    0.8997706668149622    0.7019439091312067 Fe
   0.9999191341063737    0.6035504042224911    0.7285103486551394 Fe
   0.4999030668655003    0.0980927836260327    0.7322376852406214 Fe
   0.9999226653681040    0.3062748762073157    0.7586436744255791 Fe
   0.4999171919124218    0.8050268154669080    0.7572275121563852 Fe
