Fe68
1.0
   6.3322070000000004    0.0000000000000000    0.0000000000000000
  -1.2664409999999999    3.7993239999999999    0.0000000000000000
   0.0000000000000000    0.0000000000000000   50.9732800000000026
Fe
68
direct
   0.9990444616695436    0.9995146505009839    0.1896650558881045 Fe
   0.2318633079022122    0.6159753682497202    0.1969119899680774 Fe
   0.4457066220965152    0.2228422740466462    0.2053550409155542 Fe
   0.6609580287711854    0.8305266936960364    0.2156979107485333 Fe
   0.8847683784212406    0.4423471122757627    0.2224559612408697 Fe
   0.1102011744551659    0.0551203319327333    0.2335549134762370 Fe
   0.3315357680839237    0.6657658046536699    0.2429459120543155 Fe
   0.5552745260522400    0.2776309680353663    0.2520010483924126 Fe
   0.7768438982696951    0.8884080431150383    0.2614750316244118 Fe
   0.9981911783630334    0.4990940493624655    0.2706859358471733 Fe
   0.2214230567258743    0.1107170644040887    0.2800090557248817 Fe
   0.4433177499478535    0.7216678545972914    0.2893729812952982 Fe
   0.6657957574196590    0.3328907984683591    0.2985120831933907 Fe
   0.8879794493987260    0.9439837192089960    0.3077730136259624 Fe
   0.1101990424980642    0.5551013811930754    0.3169739126067618 Fe
   0.3323633099692563    0.1662085149884558    0.3261999227830737 Fe
   0.5549286487620538    0.7774251419463041    0.3354579104974214 Fe
   0.7775282568002791    0.3887744240817577    0.3447349277896184 Fe
   0.0002063524832008    0.0000842255095907    0.3539140506555591 Fe
   0.2225005904344611    0.6112403153824206    0.3632650282657894 Fe
   0.4445922134095338    0.2223079684701805    0.3724539601924773 Fe
   0.6667901184446744    0.8333614085031968    0.3816740849323410 Fe
   0.8888575265871530    0.4444264295437820    0.3909509060433231 Fe
   0.1115614163296435    0.0557625514433620    0.4001310098153386 Fe
   0.3345120867935702    0.6672634394960787    0.4095269129237906 Fe
   0.5564047270197757    0.2781968581779284    0.4189710766111186 Fe
   0.7766933451810283    0.8883738265017671    0.4278910440921204 Fe
   0.0008417023001052    0.5004100729498194    0.4372349591786127 Fe
   0.2235297471166669    0.1117988357928937    0.4464340925284777 Fe
   0.4471442198275938    0.7235945131291777    0.4569519560051854 Fe
   0.6705292306854738    0.3352464806897227    0.4656629904922736 Fe
   0.8814609218792681    0.9407489332312801    0.4729929092261671 Fe
   0.1152204617011826    0.5576176182920962    0.4846199812921593 Fe
   0.3466842775195714    0.1733018821242937    0.4911190725807717 Fe
   0.5433050029433120    0.7716820150110913    0.5139290624421265 Fe
   0.7721778317265087    0.3860897359635556    0.5140149898142713 Fe
   0.0081688209666512    0.0040796731207973    0.5140269568683828 Fe
   0.3467895593982465    0.1733545230677878    0.5369209122897329 Fe
   0.1153157418004275    0.5576834194714638    0.5434099983363833 Fe
   0.8818883663089336    0.9409200162976361    0.5550629663227479 Fe
   0.6708587629641475    0.3354412521806511    0.5623889614323426 Fe
   0.4474548013680227    0.7237813884785820    0.5710380026555089 Fe
   0.2238197986922921    0.1119462304346773    0.5816029496238029 Fe
   0.0009001337418139    0.5004574497989642    0.5908009058863781 Fe
   0.7765554259218760    0.8882685446147789    0.6001269684823107 Fe
   0.5562641757130331    0.2781021044796390    0.6090230018550895 Fe
   0.3345099811573268    0.6672371190243317    0.6184479397833531 Fe
   0.1115082489822842    0.0557099104998679    0.6278000944808730 Fe
   0.8889517538691075    0.4444632782042279    0.6369770593534494 Fe
   0.6667032608937282    0.8333377200786244    0.6462809534720937 Fe
   0.4441242354578668    0.2220921406018544    0.6555169688903676 Fe
   0.2215946398681709    0.6107928673627203    0.6647129633407933 Fe
   0.9990739405944087    0.9995514991614298    0.6740719843808364 Fe
   0.7765386071415643    0.3882638069298643    0.6832909320334104 Fe
   0.5541985189330678    0.7770671835305438    0.6924830028595373 Fe
   0.3320127213140164    0.1660190075918768    0.7017519767219218 Fe
   0.1097105345815936    0.5548460726171287    0.7108300662621670 Fe
   0.8875983289975896    0.9437994759067665    0.7202189068468813 Fe
   0.6643439203112328    0.3321933059670615    0.7295479121610380 Fe
   0.4429118883052700    0.7214704510591884    0.7387849084853868 Fe
   0.2213804175647199    0.1107012721210405    0.7482449628511252 Fe
   0.9974563108510450    0.4987045063806088    0.7572590973152993 Fe
   0.7760753405553668    0.8880237642275309    0.7666850161496376 Fe
   0.5508890093969844    0.2754200484086116    0.7778110413926668 Fe
   0.3268423019304258    0.6634601313286258    0.7845600675491159 Fe
   0.1115887896186809    0.0557651834905367    0.7948570309777985 Fe
   0.8980507402313178    0.4490562005240932    0.8033550126654593 Fe
   0.6649819021769745    0.8324849367940191    0.8105919415034700 Fe
